(set-logic QF_LRA)
(declare-fun T1 () Real )
(declare-fun T2 () Real )
(declare-fun T3 () Real )
(declare-fun T4 () Real )
(declare-fun T5 () Real )
(declare-fun T6 () Real )
(declare-fun T7 () Real )
(declare-fun T8 () Real )
(declare-fun Z () Real )
(assert ( and 
(or ( <= ( + T1 95 ) T2 ) ( <= ( + T2 91 ) T1 ) )
(or ( <= ( + T1 140 )  ( + T2 91 ) ) ( <= ( + T2 149 )( + T1 95 ) ) )
(or ( <= ( + T1 153 )  ( + T2 149 ) ) ( <= ( + T2 247 )( + T1 140 ) ) )
(or ( <= ( + T1 241 )  ( + T2 247 ) ) ( <= ( + T2 331 )( + T1 153 ) ) )
(or ( <= ( + T1 290 )  ( + T2 331 ) ) ( <= ( + T2 411 )( + T1 241 ) ) )
(or ( <= ( + T1 331 )  ( + T2 411 ) ) ( <= ( + T2 504 )( + T1 290 ) ) )
(or ( <= ( + T1 360 )  ( + T2 504 ) ) ( <= ( + T2 579 )( + T1 331 ) ) )
(or ( <= ( + T1 385 )  ( + T2 579 ) ) ( <= ( + T2 668 )( + T1 360 ) ) )
(or ( <= ( + T1 440 )  ( + T2 668 ) ) ( <= ( + T2 681 )( + T1 385 ) ) )
(or ( <= ( + T1 538 )  ( + T2 681 ) ) ( <= ( + T2 730 )( + T1 440 ) ) )
(or ( <= ( + T1 95 ) T3 ) ( <= ( + T3 40 ) T1 ) )
(or ( <= ( + T1 140 )  ( + T3 40 ) ) ( <= ( + T3 43 )( + T1 95 ) ) )
(or ( <= ( + T1 153 )  ( + T3 43 ) ) ( <= ( + T3 45 )( + T1 140 ) ) )
(or ( <= ( + T1 241 )  ( + T3 45 ) ) ( <= ( + T3 117 )( + T1 153 ) ) )
(or ( <= ( + T1 290 )  ( + T3 117 ) ) ( <= ( + T3 122 )( + T1 241 ) ) )
(or ( <= ( + T1 331 )  ( + T3 122 ) ) ( <= ( + T3 126 )( + T1 290 ) ) )
(or ( <= ( + T1 360 )  ( + T3 126 ) ) ( <= ( + T3 130 )( + T1 331 ) ) )
(or ( <= ( + T1 385 )  ( + T3 130 ) ) ( <= ( + T3 222 )( + T1 360 ) ) )
(or ( <= ( + T1 440 )  ( + T3 222 ) ) ( <= ( + T3 298 )( + T1 385 ) ) )
(or ( <= ( + T1 538 )  ( + T3 298 ) ) ( <= ( + T3 309 )( + T1 440 ) ) )
(or ( <= ( + T1 95 ) T4 ) ( <= ( + T4 69 ) T1 ) )
(or ( <= ( + T1 140 )  ( + T4 69 ) ) ( <= ( + T4 92 )( + T1 95 ) ) )
(or ( <= ( + T1 153 )  ( + T4 92 ) ) ( <= ( + T4 147 )( + T1 140 ) ) )
(or ( <= ( + T1 241 )  ( + T4 147 ) ) ( <= ( + T4 228 )( + T1 153 ) ) )
(or ( <= ( + T1 290 )  ( + T4 228 ) ) ( <= ( + T4 290 )( + T1 241 ) ) )
(or ( <= ( + T1 331 )  ( + T4 290 ) ) ( <= ( + T4 293 )( + T1 290 ) ) )
(or ( <= ( + T1 360 )  ( + T4 293 ) ) ( <= ( + T4 366 )( + T1 331 ) ) )
(or ( <= ( + T1 385 )  ( + T4 366 ) ) ( <= ( + T4 408 )( + T1 360 ) ) )
(or ( <= ( + T1 440 )  ( + T4 408 ) ) ( <= ( + T4 488 )( + T1 385 ) ) )
(or ( <= ( + T1 538 )  ( + T4 488 ) ) ( <= ( + T4 568 )( + T1 440 ) ) )
(or ( <= ( + T1 95 ) T5 ) ( <= ( + T5 40 ) T1 ) )
(or ( <= ( + T1 140 )  ( + T5 40 ) ) ( <= ( + T5 62 )( + T1 95 ) ) )
(or ( <= ( + T1 153 )  ( + T5 62 ) ) ( <= ( + T5 99 )( + T1 140 ) ) )
(or ( <= ( + T1 241 )  ( + T5 99 ) ) ( <= ( + T5 136 )( + T1 153 ) ) )
(or ( <= ( + T1 290 )  ( + T5 136 ) ) ( <= ( + T5 193 )( + T1 241 ) ) )
(or ( <= ( + T1 331 )  ( + T5 193 ) ) ( <= ( + T5 262 )( + T1 290 ) ) )
(or ( <= ( + T1 360 )  ( + T5 262 ) ) ( <= ( + T5 343 )( + T1 331 ) ) )
(or ( <= ( + T1 385 )  ( + T5 343 ) ) ( <= ( + T5 426 )( + T1 360 ) ) )
(or ( <= ( + T1 440 )  ( + T5 426 ) ) ( <= ( + T5 483 )( + T1 385 ) ) )
(or ( <= ( + T1 538 )  ( + T5 483 ) ) ( <= ( + T5 577 )( + T1 440 ) ) )
(or ( <= ( + T1 95 ) T6 ) ( <= ( + T6 31 ) T1 ) )
(or ( <= ( + T1 140 )  ( + T6 31 ) ) ( <= ( + T6 79 )( + T1 95 ) ) )
(or ( <= ( + T1 153 )  ( + T6 79 ) ) ( <= ( + T6 175 )( + T1 140 ) ) )
(or ( <= ( + T1 241 )  ( + T6 175 ) ) ( <= ( + T6 259 )( + T1 153 ) ) )
(or ( <= ( + T1 290 )  ( + T6 259 ) ) ( <= ( + T6 330 )( + T1 241 ) ) )
(or ( <= ( + T1 331 )  ( + T6 330 ) ) ( <= ( + T6 383 )( + T1 290 ) ) )
(or ( <= ( + T1 360 )  ( + T6 383 ) ) ( <= ( + T6 470 )( + T1 331 ) ) )
(or ( <= ( + T1 385 )  ( + T6 470 ) ) ( <= ( + T6 545 )( + T1 360 ) ) )
(or ( <= ( + T1 440 )  ( + T6 545 ) ) ( <= ( + T6 589 )( + T1 385 ) ) )
(or ( <= ( + T1 538 )  ( + T6 589 ) ) ( <= ( + T6 604 )( + T1 440 ) ) )
(or ( <= ( + T1 95 ) T7 ) ( <= ( + T7 85 ) T1 ) )
(or ( <= ( + T1 140 )  ( + T7 85 ) ) ( <= ( + T7 149 )( + T1 95 ) ) )
(or ( <= ( + T1 153 )  ( + T7 149 ) ) ( <= ( + T7 238 )( + T1 140 ) ) )
(or ( <= ( + T1 241 )  ( + T7 238 ) ) ( <= ( + T7 329 )( + T1 153 ) ) )
(or ( <= ( + T1 290 )  ( + T7 329 ) ) ( <= ( + T7 425 )( + T1 241 ) ) )
(or ( <= ( + T1 331 )  ( + T7 425 ) ) ( <= ( + T7 475 )( + T1 290 ) ) )
(or ( <= ( + T1 360 )  ( + T7 475 ) ) ( <= ( + T7 568 )( + T1 331 ) ) )
(or ( <= ( + T1 385 )  ( + T7 568 ) ) ( <= ( + T7 588 )( + T1 360 ) ) )
(or ( <= ( + T1 440 )  ( + T7 588 ) ) ( <= ( + T7 679 )( + T1 385 ) ) )
(or ( <= ( + T1 538 )  ( + T7 679 ) ) ( <= ( + T7 703 )( + T1 440 ) ) )
(or ( <= ( + T1 95 ) T8 ) ( <= ( + T8 99 ) T1 ) )
(or ( <= ( + T1 140 )  ( + T8 99 ) ) ( <= ( + T8 181 )( + T1 95 ) ) )
(or ( <= ( + T1 153 )  ( + T8 181 ) ) ( <= ( + T8 226 )( + T1 140 ) ) )
(or ( <= ( + T1 241 )  ( + T8 226 ) ) ( <= ( + T8 262 )( + T1 153 ) ) )
(or ( <= ( + T1 290 )  ( + T8 262 ) ) ( <= ( + T8 281 )( + T1 241 ) ) )
(or ( <= ( + T1 331 )  ( + T8 281 ) ) ( <= ( + T8 282 )( + T1 290 ) ) )
(or ( <= ( + T1 360 )  ( + T8 282 ) ) ( <= ( + T8 338 )( + T1 331 ) ) )
(or ( <= ( + T1 385 )  ( + T8 338 ) ) ( <= ( + T8 437 )( + T1 360 ) ) )
(or ( <= ( + T1 440 )  ( + T8 437 ) ) ( <= ( + T8 472 )( + T1 385 ) ) )
(or ( <= ( + T1 538 )  ( + T8 472 ) ) ( <= ( + T8 536 )( + T1 440 ) ) )
(or ( <= ( + T2 91 ) T3 ) ( <= ( + T3 40 ) T2 ) )
(or ( <= ( + T2 149 )  ( + T3 40 ) ) ( <= ( + T3 43 )( + T2 91 ) ) )
(or ( <= ( + T2 247 )  ( + T3 43 ) ) ( <= ( + T3 45 )( + T2 149 ) ) )
(or ( <= ( + T2 331 )  ( + T3 45 ) ) ( <= ( + T3 117 )( + T2 247 ) ) )
(or ( <= ( + T2 411 )  ( + T3 117 ) ) ( <= ( + T3 122 )( + T2 331 ) ) )
(or ( <= ( + T2 504 )  ( + T3 122 ) ) ( <= ( + T3 126 )( + T2 411 ) ) )
(or ( <= ( + T2 579 )  ( + T3 126 ) ) ( <= ( + T3 130 )( + T2 504 ) ) )
(or ( <= ( + T2 668 )  ( + T3 130 ) ) ( <= ( + T3 222 )( + T2 579 ) ) )
(or ( <= ( + T2 681 )  ( + T3 222 ) ) ( <= ( + T3 298 )( + T2 668 ) ) )
(or ( <= ( + T2 730 )  ( + T3 298 ) ) ( <= ( + T3 309 )( + T2 681 ) ) )
(or ( <= ( + T2 91 ) T4 ) ( <= ( + T4 69 ) T2 ) )
(or ( <= ( + T2 149 )  ( + T4 69 ) ) ( <= ( + T4 92 )( + T2 91 ) ) )
(or ( <= ( + T2 247 )  ( + T4 92 ) ) ( <= ( + T4 147 )( + T2 149 ) ) )
(or ( <= ( + T2 331 )  ( + T4 147 ) ) ( <= ( + T4 228 )( + T2 247 ) ) )
(or ( <= ( + T2 411 )  ( + T4 228 ) ) ( <= ( + T4 290 )( + T2 331 ) ) )
(or ( <= ( + T2 504 )  ( + T4 290 ) ) ( <= ( + T4 293 )( + T2 411 ) ) )
(or ( <= ( + T2 579 )  ( + T4 293 ) ) ( <= ( + T4 366 )( + T2 504 ) ) )
(or ( <= ( + T2 668 )  ( + T4 366 ) ) ( <= ( + T4 408 )( + T2 579 ) ) )
(or ( <= ( + T2 681 )  ( + T4 408 ) ) ( <= ( + T4 488 )( + T2 668 ) ) )
(or ( <= ( + T2 730 )  ( + T4 488 ) ) ( <= ( + T4 568 )( + T2 681 ) ) )
(or ( <= ( + T2 91 ) T5 ) ( <= ( + T5 40 ) T2 ) )
(or ( <= ( + T2 149 )  ( + T5 40 ) ) ( <= ( + T5 62 )( + T2 91 ) ) )
(or ( <= ( + T2 247 )  ( + T5 62 ) ) ( <= ( + T5 99 )( + T2 149 ) ) )
(or ( <= ( + T2 331 )  ( + T5 99 ) ) ( <= ( + T5 136 )( + T2 247 ) ) )
(or ( <= ( + T2 411 )  ( + T5 136 ) ) ( <= ( + T5 193 )( + T2 331 ) ) )
(or ( <= ( + T2 504 )  ( + T5 193 ) ) ( <= ( + T5 262 )( + T2 411 ) ) )
(or ( <= ( + T2 579 )  ( + T5 262 ) ) ( <= ( + T5 343 )( + T2 504 ) ) )
(or ( <= ( + T2 668 )  ( + T5 343 ) ) ( <= ( + T5 426 )( + T2 579 ) ) )
(or ( <= ( + T2 681 )  ( + T5 426 ) ) ( <= ( + T5 483 )( + T2 668 ) ) )
(or ( <= ( + T2 730 )  ( + T5 483 ) ) ( <= ( + T5 577 )( + T2 681 ) ) )
(or ( <= ( + T2 91 ) T6 ) ( <= ( + T6 31 ) T2 ) )
(or ( <= ( + T2 149 )  ( + T6 31 ) ) ( <= ( + T6 79 )( + T2 91 ) ) )
(or ( <= ( + T2 247 )  ( + T6 79 ) ) ( <= ( + T6 175 )( + T2 149 ) ) )
(or ( <= ( + T2 331 )  ( + T6 175 ) ) ( <= ( + T6 259 )( + T2 247 ) ) )
(or ( <= ( + T2 411 )  ( + T6 259 ) ) ( <= ( + T6 330 )( + T2 331 ) ) )
(or ( <= ( + T2 504 )  ( + T6 330 ) ) ( <= ( + T6 383 )( + T2 411 ) ) )
(or ( <= ( + T2 579 )  ( + T6 383 ) ) ( <= ( + T6 470 )( + T2 504 ) ) )
(or ( <= ( + T2 668 )  ( + T6 470 ) ) ( <= ( + T6 545 )( + T2 579 ) ) )
(or ( <= ( + T2 681 )  ( + T6 545 ) ) ( <= ( + T6 589 )( + T2 668 ) ) )
(or ( <= ( + T2 730 )  ( + T6 589 ) ) ( <= ( + T6 604 )( + T2 681 ) ) )
(or ( <= ( + T2 91 ) T7 ) ( <= ( + T7 85 ) T2 ) )
(or ( <= ( + T2 149 )  ( + T7 85 ) ) ( <= ( + T7 149 )( + T2 91 ) ) )
(or ( <= ( + T2 247 )  ( + T7 149 ) ) ( <= ( + T7 238 )( + T2 149 ) ) )
(or ( <= ( + T2 331 )  ( + T7 238 ) ) ( <= ( + T7 329 )( + T2 247 ) ) )
(or ( <= ( + T2 411 )  ( + T7 329 ) ) ( <= ( + T7 425 )( + T2 331 ) ) )
(or ( <= ( + T2 504 )  ( + T7 425 ) ) ( <= ( + T7 475 )( + T2 411 ) ) )
(or ( <= ( + T2 579 )  ( + T7 475 ) ) ( <= ( + T7 568 )( + T2 504 ) ) )
(or ( <= ( + T2 668 )  ( + T7 568 ) ) ( <= ( + T7 588 )( + T2 579 ) ) )
(or ( <= ( + T2 681 )  ( + T7 588 ) ) ( <= ( + T7 679 )( + T2 668 ) ) )
(or ( <= ( + T2 730 )  ( + T7 679 ) ) ( <= ( + T7 703 )( + T2 681 ) ) )
(or ( <= ( + T2 91 ) T8 ) ( <= ( + T8 99 ) T2 ) )
(or ( <= ( + T2 149 )  ( + T8 99 ) ) ( <= ( + T8 181 )( + T2 91 ) ) )
(or ( <= ( + T2 247 )  ( + T8 181 ) ) ( <= ( + T8 226 )( + T2 149 ) ) )
(or ( <= ( + T2 331 )  ( + T8 226 ) ) ( <= ( + T8 262 )( + T2 247 ) ) )
(or ( <= ( + T2 411 )  ( + T8 262 ) ) ( <= ( + T8 281 )( + T2 331 ) ) )
(or ( <= ( + T2 504 )  ( + T8 281 ) ) ( <= ( + T8 282 )( + T2 411 ) ) )
(or ( <= ( + T2 579 )  ( + T8 282 ) ) ( <= ( + T8 338 )( + T2 504 ) ) )
(or ( <= ( + T2 668 )  ( + T8 338 ) ) ( <= ( + T8 437 )( + T2 579 ) ) )
(or ( <= ( + T2 681 )  ( + T8 437 ) ) ( <= ( + T8 472 )( + T2 668 ) ) )
(or ( <= ( + T2 730 )  ( + T8 472 ) ) ( <= ( + T8 536 )( + T2 681 ) ) )
(or ( <= ( + T3 40 ) T4 ) ( <= ( + T4 69 ) T3 ) )
(or ( <= ( + T3 43 )  ( + T4 69 ) ) ( <= ( + T4 92 )( + T3 40 ) ) )
(or ( <= ( + T3 45 )  ( + T4 92 ) ) ( <= ( + T4 147 )( + T3 43 ) ) )
(or ( <= ( + T3 117 )  ( + T4 147 ) ) ( <= ( + T4 228 )( + T3 45 ) ) )
(or ( <= ( + T3 122 )  ( + T4 228 ) ) ( <= ( + T4 290 )( + T3 117 ) ) )
(or ( <= ( + T3 126 )  ( + T4 290 ) ) ( <= ( + T4 293 )( + T3 122 ) ) )
(or ( <= ( + T3 130 )  ( + T4 293 ) ) ( <= ( + T4 366 )( + T3 126 ) ) )
(or ( <= ( + T3 222 )  ( + T4 366 ) ) ( <= ( + T4 408 )( + T3 130 ) ) )
(or ( <= ( + T3 298 )  ( + T4 408 ) ) ( <= ( + T4 488 )( + T3 222 ) ) )
(or ( <= ( + T3 309 )  ( + T4 488 ) ) ( <= ( + T4 568 )( + T3 298 ) ) )
(or ( <= ( + T3 40 ) T5 ) ( <= ( + T5 40 ) T3 ) )
(or ( <= ( + T3 43 )  ( + T5 40 ) ) ( <= ( + T5 62 )( + T3 40 ) ) )
(or ( <= ( + T3 45 )  ( + T5 62 ) ) ( <= ( + T5 99 )( + T3 43 ) ) )
(or ( <= ( + T3 117 )  ( + T5 99 ) ) ( <= ( + T5 136 )( + T3 45 ) ) )
(or ( <= ( + T3 122 )  ( + T5 136 ) ) ( <= ( + T5 193 )( + T3 117 ) ) )
(or ( <= ( + T3 126 )  ( + T5 193 ) ) ( <= ( + T5 262 )( + T3 122 ) ) )
(or ( <= ( + T3 130 )  ( + T5 262 ) ) ( <= ( + T5 343 )( + T3 126 ) ) )
(or ( <= ( + T3 222 )  ( + T5 343 ) ) ( <= ( + T5 426 )( + T3 130 ) ) )
(or ( <= ( + T3 298 )  ( + T5 426 ) ) ( <= ( + T5 483 )( + T3 222 ) ) )
(or ( <= ( + T3 309 )  ( + T5 483 ) ) ( <= ( + T5 577 )( + T3 298 ) ) )
(or ( <= ( + T3 40 ) T6 ) ( <= ( + T6 31 ) T3 ) )
(or ( <= ( + T3 43 )  ( + T6 31 ) ) ( <= ( + T6 79 )( + T3 40 ) ) )
(or ( <= ( + T3 45 )  ( + T6 79 ) ) ( <= ( + T6 175 )( + T3 43 ) ) )
(or ( <= ( + T3 117 )  ( + T6 175 ) ) ( <= ( + T6 259 )( + T3 45 ) ) )
(or ( <= ( + T3 122 )  ( + T6 259 ) ) ( <= ( + T6 330 )( + T3 117 ) ) )
(or ( <= ( + T3 126 )  ( + T6 330 ) ) ( <= ( + T6 383 )( + T3 122 ) ) )
(or ( <= ( + T3 130 )  ( + T6 383 ) ) ( <= ( + T6 470 )( + T3 126 ) ) )
(or ( <= ( + T3 222 )  ( + T6 470 ) ) ( <= ( + T6 545 )( + T3 130 ) ) )
(or ( <= ( + T3 298 )  ( + T6 545 ) ) ( <= ( + T6 589 )( + T3 222 ) ) )
(or ( <= ( + T3 309 )  ( + T6 589 ) ) ( <= ( + T6 604 )( + T3 298 ) ) )
(or ( <= ( + T3 40 ) T7 ) ( <= ( + T7 85 ) T3 ) )
(or ( <= ( + T3 43 )  ( + T7 85 ) ) ( <= ( + T7 149 )( + T3 40 ) ) )
(or ( <= ( + T3 45 )  ( + T7 149 ) ) ( <= ( + T7 238 )( + T3 43 ) ) )
(or ( <= ( + T3 117 )  ( + T7 238 ) ) ( <= ( + T7 329 )( + T3 45 ) ) )
(or ( <= ( + T3 122 )  ( + T7 329 ) ) ( <= ( + T7 425 )( + T3 117 ) ) )
(or ( <= ( + T3 126 )  ( + T7 425 ) ) ( <= ( + T7 475 )( + T3 122 ) ) )
(or ( <= ( + T3 130 )  ( + T7 475 ) ) ( <= ( + T7 568 )( + T3 126 ) ) )
(or ( <= ( + T3 222 )  ( + T7 568 ) ) ( <= ( + T7 588 )( + T3 130 ) ) )
(or ( <= ( + T3 298 )  ( + T7 588 ) ) ( <= ( + T7 679 )( + T3 222 ) ) )
(or ( <= ( + T3 309 )  ( + T7 679 ) ) ( <= ( + T7 703 )( + T3 298 ) ) )
(or ( <= ( + T3 40 ) T8 ) ( <= ( + T8 99 ) T3 ) )
(or ( <= ( + T3 43 )  ( + T8 99 ) ) ( <= ( + T8 181 )( + T3 40 ) ) )
(or ( <= ( + T3 45 )  ( + T8 181 ) ) ( <= ( + T8 226 )( + T3 43 ) ) )
(or ( <= ( + T3 117 )  ( + T8 226 ) ) ( <= ( + T8 262 )( + T3 45 ) ) )
(or ( <= ( + T3 122 )  ( + T8 262 ) ) ( <= ( + T8 281 )( + T3 117 ) ) )
(or ( <= ( + T3 126 )  ( + T8 281 ) ) ( <= ( + T8 282 )( + T3 122 ) ) )
(or ( <= ( + T3 130 )  ( + T8 282 ) ) ( <= ( + T8 338 )( + T3 126 ) ) )
(or ( <= ( + T3 222 )  ( + T8 338 ) ) ( <= ( + T8 437 )( + T3 130 ) ) )
(or ( <= ( + T3 298 )  ( + T8 437 ) ) ( <= ( + T8 472 )( + T3 222 ) ) )
(or ( <= ( + T3 309 )  ( + T8 472 ) ) ( <= ( + T8 536 )( + T3 298 ) ) )
(or ( <= ( + T4 69 ) T5 ) ( <= ( + T5 40 ) T4 ) )
(or ( <= ( + T4 92 )  ( + T5 40 ) ) ( <= ( + T5 62 )( + T4 69 ) ) )
(or ( <= ( + T4 147 )  ( + T5 62 ) ) ( <= ( + T5 99 )( + T4 92 ) ) )
(or ( <= ( + T4 228 )  ( + T5 99 ) ) ( <= ( + T5 136 )( + T4 147 ) ) )
(or ( <= ( + T4 290 )  ( + T5 136 ) ) ( <= ( + T5 193 )( + T4 228 ) ) )
(or ( <= ( + T4 293 )  ( + T5 193 ) ) ( <= ( + T5 262 )( + T4 290 ) ) )
(or ( <= ( + T4 366 )  ( + T5 262 ) ) ( <= ( + T5 343 )( + T4 293 ) ) )
(or ( <= ( + T4 408 )  ( + T5 343 ) ) ( <= ( + T5 426 )( + T4 366 ) ) )
(or ( <= ( + T4 488 )  ( + T5 426 ) ) ( <= ( + T5 483 )( + T4 408 ) ) )
(or ( <= ( + T4 568 )  ( + T5 483 ) ) ( <= ( + T5 577 )( + T4 488 ) ) )
(or ( <= ( + T4 69 ) T6 ) ( <= ( + T6 31 ) T4 ) )
(or ( <= ( + T4 92 )  ( + T6 31 ) ) ( <= ( + T6 79 )( + T4 69 ) ) )
(or ( <= ( + T4 147 )  ( + T6 79 ) ) ( <= ( + T6 175 )( + T4 92 ) ) )
(or ( <= ( + T4 228 )  ( + T6 175 ) ) ( <= ( + T6 259 )( + T4 147 ) ) )
(or ( <= ( + T4 290 )  ( + T6 259 ) ) ( <= ( + T6 330 )( + T4 228 ) ) )
(or ( <= ( + T4 293 )  ( + T6 330 ) ) ( <= ( + T6 383 )( + T4 290 ) ) )
(or ( <= ( + T4 366 )  ( + T6 383 ) ) ( <= ( + T6 470 )( + T4 293 ) ) )
(or ( <= ( + T4 408 )  ( + T6 470 ) ) ( <= ( + T6 545 )( + T4 366 ) ) )
(or ( <= ( + T4 488 )  ( + T6 545 ) ) ( <= ( + T6 589 )( + T4 408 ) ) )
(or ( <= ( + T4 568 )  ( + T6 589 ) ) ( <= ( + T6 604 )( + T4 488 ) ) )
(or ( <= ( + T4 69 ) T7 ) ( <= ( + T7 85 ) T4 ) )
(or ( <= ( + T4 92 )  ( + T7 85 ) ) ( <= ( + T7 149 )( + T4 69 ) ) )
(or ( <= ( + T4 147 )  ( + T7 149 ) ) ( <= ( + T7 238 )( + T4 92 ) ) )
(or ( <= ( + T4 228 )  ( + T7 238 ) ) ( <= ( + T7 329 )( + T4 147 ) ) )
(or ( <= ( + T4 290 )  ( + T7 329 ) ) ( <= ( + T7 425 )( + T4 228 ) ) )
(or ( <= ( + T4 293 )  ( + T7 425 ) ) ( <= ( + T7 475 )( + T4 290 ) ) )
(or ( <= ( + T4 366 )  ( + T7 475 ) ) ( <= ( + T7 568 )( + T4 293 ) ) )
(or ( <= ( + T4 408 )  ( + T7 568 ) ) ( <= ( + T7 588 )( + T4 366 ) ) )
(or ( <= ( + T4 488 )  ( + T7 588 ) ) ( <= ( + T7 679 )( + T4 408 ) ) )
(or ( <= ( + T4 568 )  ( + T7 679 ) ) ( <= ( + T7 703 )( + T4 488 ) ) )
(or ( <= ( + T4 69 ) T8 ) ( <= ( + T8 99 ) T4 ) )
(or ( <= ( + T4 92 )  ( + T8 99 ) ) ( <= ( + T8 181 )( + T4 69 ) ) )
(or ( <= ( + T4 147 )  ( + T8 181 ) ) ( <= ( + T8 226 )( + T4 92 ) ) )
(or ( <= ( + T4 228 )  ( + T8 226 ) ) ( <= ( + T8 262 )( + T4 147 ) ) )
(or ( <= ( + T4 290 )  ( + T8 262 ) ) ( <= ( + T8 281 )( + T4 228 ) ) )
(or ( <= ( + T4 293 )  ( + T8 281 ) ) ( <= ( + T8 282 )( + T4 290 ) ) )
(or ( <= ( + T4 366 )  ( + T8 282 ) ) ( <= ( + T8 338 )( + T4 293 ) ) )
(or ( <= ( + T4 408 )  ( + T8 338 ) ) ( <= ( + T8 437 )( + T4 366 ) ) )
(or ( <= ( + T4 488 )  ( + T8 437 ) ) ( <= ( + T8 472 )( + T4 408 ) ) )
(or ( <= ( + T4 568 )  ( + T8 472 ) ) ( <= ( + T8 536 )( + T4 488 ) ) )
(or ( <= ( + T5 40 ) T6 ) ( <= ( + T6 31 ) T5 ) )
(or ( <= ( + T5 62 )  ( + T6 31 ) ) ( <= ( + T6 79 )( + T5 40 ) ) )
(or ( <= ( + T5 99 )  ( + T6 79 ) ) ( <= ( + T6 175 )( + T5 62 ) ) )
(or ( <= ( + T5 136 )  ( + T6 175 ) ) ( <= ( + T6 259 )( + T5 99 ) ) )
(or ( <= ( + T5 193 )  ( + T6 259 ) ) ( <= ( + T6 330 )( + T5 136 ) ) )
(or ( <= ( + T5 262 )  ( + T6 330 ) ) ( <= ( + T6 383 )( + T5 193 ) ) )
(or ( <= ( + T5 343 )  ( + T6 383 ) ) ( <= ( + T6 470 )( + T5 262 ) ) )
(or ( <= ( + T5 426 )  ( + T6 470 ) ) ( <= ( + T6 545 )( + T5 343 ) ) )
(or ( <= ( + T5 483 )  ( + T6 545 ) ) ( <= ( + T6 589 )( + T5 426 ) ) )
(or ( <= ( + T5 577 )  ( + T6 589 ) ) ( <= ( + T6 604 )( + T5 483 ) ) )
(or ( <= ( + T5 40 ) T7 ) ( <= ( + T7 85 ) T5 ) )
(or ( <= ( + T5 62 )  ( + T7 85 ) ) ( <= ( + T7 149 )( + T5 40 ) ) )
(or ( <= ( + T5 99 )  ( + T7 149 ) ) ( <= ( + T7 238 )( + T5 62 ) ) )
(or ( <= ( + T5 136 )  ( + T7 238 ) ) ( <= ( + T7 329 )( + T5 99 ) ) )
(or ( <= ( + T5 193 )  ( + T7 329 ) ) ( <= ( + T7 425 )( + T5 136 ) ) )
(or ( <= ( + T5 262 )  ( + T7 425 ) ) ( <= ( + T7 475 )( + T5 193 ) ) )
(or ( <= ( + T5 343 )  ( + T7 475 ) ) ( <= ( + T7 568 )( + T5 262 ) ) )
(or ( <= ( + T5 426 )  ( + T7 568 ) ) ( <= ( + T7 588 )( + T5 343 ) ) )
(or ( <= ( + T5 483 )  ( + T7 588 ) ) ( <= ( + T7 679 )( + T5 426 ) ) )
(or ( <= ( + T5 577 )  ( + T7 679 ) ) ( <= ( + T7 703 )( + T5 483 ) ) )
(or ( <= ( + T5 40 ) T8 ) ( <= ( + T8 99 ) T5 ) )
(or ( <= ( + T5 62 )  ( + T8 99 ) ) ( <= ( + T8 181 )( + T5 40 ) ) )
(or ( <= ( + T5 99 )  ( + T8 181 ) ) ( <= ( + T8 226 )( + T5 62 ) ) )
(or ( <= ( + T5 136 )  ( + T8 226 ) ) ( <= ( + T8 262 )( + T5 99 ) ) )
(or ( <= ( + T5 193 )  ( + T8 262 ) ) ( <= ( + T8 281 )( + T5 136 ) ) )
(or ( <= ( + T5 262 )  ( + T8 281 ) ) ( <= ( + T8 282 )( + T5 193 ) ) )
(or ( <= ( + T5 343 )  ( + T8 282 ) ) ( <= ( + T8 338 )( + T5 262 ) ) )
(or ( <= ( + T5 426 )  ( + T8 338 ) ) ( <= ( + T8 437 )( + T5 343 ) ) )
(or ( <= ( + T5 483 )  ( + T8 437 ) ) ( <= ( + T8 472 )( + T5 426 ) ) )
(or ( <= ( + T5 577 )  ( + T8 472 ) ) ( <= ( + T8 536 )( + T5 483 ) ) )
(or ( <= ( + T6 31 ) T7 ) ( <= ( + T7 85 ) T6 ) )
(or ( <= ( + T6 79 )  ( + T7 85 ) ) ( <= ( + T7 149 )( + T6 31 ) ) )
(or ( <= ( + T6 175 )  ( + T7 149 ) ) ( <= ( + T7 238 )( + T6 79 ) ) )
(or ( <= ( + T6 259 )  ( + T7 238 ) ) ( <= ( + T7 329 )( + T6 175 ) ) )
(or ( <= ( + T6 330 )  ( + T7 329 ) ) ( <= ( + T7 425 )( + T6 259 ) ) )
(or ( <= ( + T6 383 )  ( + T7 425 ) ) ( <= ( + T7 475 )( + T6 330 ) ) )
(or ( <= ( + T6 470 )  ( + T7 475 ) ) ( <= ( + T7 568 )( + T6 383 ) ) )
(or ( <= ( + T6 545 )  ( + T7 568 ) ) ( <= ( + T7 588 )( + T6 470 ) ) )
(or ( <= ( + T6 589 )  ( + T7 588 ) ) ( <= ( + T7 679 )( + T6 545 ) ) )
(or ( <= ( + T6 604 )  ( + T7 679 ) ) ( <= ( + T7 703 )( + T6 589 ) ) )
(or ( <= ( + T6 31 ) T8 ) ( <= ( + T8 99 ) T6 ) )
(or ( <= ( + T6 79 )  ( + T8 99 ) ) ( <= ( + T8 181 )( + T6 31 ) ) )
(or ( <= ( + T6 175 )  ( + T8 181 ) ) ( <= ( + T8 226 )( + T6 79 ) ) )
(or ( <= ( + T6 259 )  ( + T8 226 ) ) ( <= ( + T8 262 )( + T6 175 ) ) )
(or ( <= ( + T6 330 )  ( + T8 262 ) ) ( <= ( + T8 281 )( + T6 259 ) ) )
(or ( <= ( + T6 383 )  ( + T8 281 ) ) ( <= ( + T8 282 )( + T6 330 ) ) )
(or ( <= ( + T6 470 )  ( + T8 282 ) ) ( <= ( + T8 338 )( + T6 383 ) ) )
(or ( <= ( + T6 545 )  ( + T8 338 ) ) ( <= ( + T8 437 )( + T6 470 ) ) )
(or ( <= ( + T6 589 )  ( + T8 437 ) ) ( <= ( + T8 472 )( + T6 545 ) ) )
(or ( <= ( + T6 604 )  ( + T8 472 ) ) ( <= ( + T8 536 )( + T6 589 ) ) )
(or ( <= ( + T7 85 ) T8 ) ( <= ( + T8 99 ) T7 ) )
(or ( <= ( + T7 149 )  ( + T8 99 ) ) ( <= ( + T8 181 )( + T7 85 ) ) )
(or ( <= ( + T7 238 )  ( + T8 181 ) ) ( <= ( + T8 226 )( + T7 149 ) ) )
(or ( <= ( + T7 329 )  ( + T8 226 ) ) ( <= ( + T8 262 )( + T7 238 ) ) )
(or ( <= ( + T7 425 )  ( + T8 262 ) ) ( <= ( + T8 281 )( + T7 329 ) ) )
(or ( <= ( + T7 475 )  ( + T8 281 ) ) ( <= ( + T8 282 )( + T7 425 ) ) )
(or ( <= ( + T7 568 )  ( + T8 282 ) ) ( <= ( + T8 338 )( + T7 475 ) ) )
(or ( <= ( + T7 588 )  ( + T8 338 ) ) ( <= ( + T8 437 )( + T7 568 ) ) )
(or ( <= ( + T7 679 )  ( + T8 437 ) ) ( <= ( + T8 472 )( + T7 588 ) ) )
(or ( <= ( + T7 703 )  ( + T8 472 ) ) ( <= ( + T8 536 )( + T7 679 ) ) )
( <= ( + T1 538 ) Z)
( <= ( + T2 730 ) Z)
( <= ( + T3 309 ) Z)
( <= ( + T4 568 ) Z)
( <= ( + T5 577 ) Z)
( <= ( + T6 604 ) Z)
( <= ( + T7 703 ) Z)
( <= ( + T8 536 ) Z)
( >= T1 0 )
( >= T2 0 )
( >= T3 0 )
( >= T4 0 )
( >= T5 0 )
( >= T6 0 )
( >= T7 0 )
( >= T8 0 )
) )
(minimize Z)
(check-sat)